893533
0 9 6946
9 10 5506
10 34 5412
34 15 56495
15 2 71701
2 13 30026
13 16 42390
16 14 45489
14 7 26226
7 8 54348
8 5 47657
5 35 22446
35 6 11793
6 12 23210
12 27 6411
27 28 17517
28 37 744
37 22 7448
22 33 31608
33 11 39714
11 32 3966
32 25 15457
25 36 14545
36 29 941
29 38 6375
38 24 4093
24 30 7859
30 19 21913
19 31 24201
31 4 3289
4 23 63665
23 21 45979
21 3 23621
3 18 26532
18 39 13572
39 17 18404
17 26 12605
26 1 15287
1 20 11545
20 0 6578
